41 91 80 14 26 99 72 53 10 48 66 57 47 7 39 5 87 35 20 88 55 77 51 86 59 31 64 84 54 92 44 21 38 62 16 65 61 42 8 78 22 90 9 58 98 76 69 3 19 28 18 6 67 27 25 40 17 1 85 30 94 60 52 83 4 36 82 56 15 93 13 63 2 89 0 70 79 11 37 96 12 45 46 68 75 50 73 95 29 24 81 49 34 74 71 43 32 23 97 33